Version identifier: 22.1.0.0 | 2022-03-09 | 1a383f8ce
CPXPARAM_Threads                                 1
CPXPARAM_MIP_Strategy_VariableSelect             3
CPXPARAM_TimeLimit                               600
Tried aggregator 1 time.
MIP Presolve eliminated 13 rows and 0 columns.
MIP Presolve modified 1 coefficients.
Reduced MIP has 1212 rows, 5001 columns, and 56883 nonzeros.
Reduced MIP has 5000 binaries, 0 generals, 0 SOSs, and 0 indicators.
Presolve time = 0.02 sec. (19.68 ticks)
Found incumbent of value 69.000000 after 0.07 sec. (53.42 ticks)
Probing time = 0.00 sec. (6.19 ticks)
Tried aggregator 1 time.
Detecting symmetries...
Reduced MIP has 1212 rows, 5001 columns, and 56883 nonzeros.
Reduced MIP has 5000 binaries, 0 generals, 0 SOSs, and 0 indicators.
Presolve time = 0.03 sec. (26.51 ticks)
Probing time = 0.00 sec. (6.19 ticks)
Clique table members: 206.
MIP emphasis: balance optimality and feasibility.
MIP search method: dynamic search.
Parallel mode: none, using 1 thread.
Root relaxation solution time = 0.66 sec. (681.05 ticks)

        Nodes                                         Cuts/
   Node  Left     Objective  IInf  Best Integer    Best Bound    ItCnt     Gap

*     0+    0                           69.0000        0.0000           100.00%
      0     0        0.0000   872       69.0000        0.0000     3161  100.00%
*     0+    0                            4.0000        0.0000           100.00%
*     0+    0                            1.0000        0.0000           100.00%
      0     2        0.0000   385        1.0000        0.0000     3161  100.00%
Elapsed time = 6.59 sec. (6810.13 ticks, tree = 0.01 MB, solutions = 3)
      1     3        0.0000   792        1.0000        0.0000     9888  100.00%
      2     4        0.0000   501        1.0000        0.0000    13420  100.00%
      3     5        0.0000   457        1.0000        0.0000    17269  100.00%
      4     6        0.0000   574        1.0000        0.0000    17797  100.00%
      5     7        0.0000   435        1.0000        0.0000    18884  100.00%
      6     8        0.0000   786        1.0000        0.0000    23260  100.00%
      7     9        0.0000   412        1.0000        0.0000    24151  100.00%
      8    10        0.0000   335        1.0000        0.0000    27576  100.00%
      9    11        0.0000   694        1.0000        0.0000    30524  100.00%
     12    14        0.0000   330        1.0000        0.0000    31387  100.00%
Elapsed time = 16.38 sec. (17708.30 ticks, tree = 0.11 MB, solutions = 3)
     14    16        0.0000   280        1.0000        0.0000    34442  100.00%
     15    17        0.0000   301        1.0000        0.0000    37277  100.00%
     16    18        0.0000   327        1.0000        0.0000    40975  100.00%
     18    20        0.0000   295        1.0000        0.0000    43398  100.00%
     20    22        0.0000   371        1.0000        0.0000    46584  100.00%
     21    23        0.0000   333        1.0000        0.0000    51828  100.00%
     22    24        0.0000   555        1.0000        0.0000    56072  100.00%
     24    26        0.0000   397        1.0000        0.0000    59316  100.00%
     27    29       -0.0000   277        1.0000        0.0000    63396  100.00%
     29    31       -0.0000   277        1.0000        0.0000    69647  100.00%
Elapsed time = 32.71 sec. (35261.11 ticks, tree = 0.27 MB, solutions = 3)
     31    33        0.0000   325        1.0000        0.0000    71926  100.00%
     33    35       -0.0000   306        1.0000        0.0000    78546  100.00%
     37    39        0.0000   222        1.0000        0.0000    79576  100.00%
     40    42        0.0000   202        1.0000        0.0000    81124  100.00%
     43    45       -0.0000   196        1.0000        0.0000    84328  100.00%
     46    48        0.0000   230        1.0000        0.0000    87609  100.00%
     49    51       -0.0000   222        1.0000        0.0000    89588  100.00%
     53    55        0.0000   176        1.0000        0.0000    92447  100.00%
     55    57        0.0000   217        1.0000        0.0000    94794  100.00%
     58    60        0.0000   173        1.0000        0.0000    96996  100.00%
Elapsed time = 48.37 sec. (51639.45 ticks, tree = 0.60 MB, solutions = 3)
     61    63       -0.0000   171        1.0000        0.0000    98721  100.00%
     64    66       -0.0000   166        1.0000        0.0000   100850  100.00%
     67    69        0.0000   305        1.0000        0.0000   105104  100.00%
     69    71        0.0000   460        1.0000        0.0000   110254  100.00%
     71    73        0.0000   153        1.0000        0.0000   115724  100.00%
     73    75        0.0000   380        1.0000        0.0000   127150  100.00%
     74    76       -0.0000   410        1.0000        0.0000   131717  100.00%
     76    78        0.0000   453        1.0000        0.0000   140459  100.00%
     78    80        0.0000   182        1.0000        0.0000   147350  100.00%
     79    81        0.0000   205        1.0000        0.0000   154317  100.00%
Elapsed time = 64.02 sec. (68019.33 ticks, tree = 0.78 MB, solutions = 3)
     80    82       -0.0000   360        1.0000        0.0000   160870  100.00%
     81    83        0.0000   167        1.0000        0.0000   165378  100.00%
     82    84        0.0000   175        1.0000        0.0000   170111  100.00%
     83    85        0.0000   170        1.0000        0.0000   175145  100.00%
     84    86        0.0000   353        1.0000        0.0000   183209  100.00%
     86    88       -0.0000   365        1.0000        0.0000   187976  100.00%
     88    90        0.0000   352        1.0000        0.0000   198442  100.00%
     89    91        0.0000   253        1.0000        0.0000   205346  100.00%
     91    93       -0.0000   309        1.0000        0.0000   210897  100.00%
     92    94        0.0000   197        1.0000        0.0000   216660  100.00%
Elapsed time = 79.84 sec. (84383.75 ticks, tree = 0.84 MB, solutions = 3)
     93    95        0.0000   383        1.0000        0.0000   223462  100.00%
     95    97        0.0000   248        1.0000        0.0000   229735  100.00%
     97    99        0.0000   225        1.0000        0.0000   239079  100.00%
     99   101        0.0000   418        1.0000        0.0000   248860  100.00%
    101   103        0.0000   191        1.0000        0.0000   253827  100.00%
    102   104        0.0000   242        1.0000        0.0000   260146  100.00%
    105   107        0.0000   399        1.0000        0.0000   267120  100.00%
    108   110        0.0000   348        1.0000        0.0000   275255  100.00%
    110   112        0.0000   413        1.0000        0.0000   280177  100.00%
    111   113        0.0000   115        1.0000        0.0000   288687  100.00%
Elapsed time = 100.78 sec. (106214.64 ticks, tree = 0.91 MB, solutions = 3)
    112   114       -0.0000   161        1.0000        0.0000   293238  100.00%
    114   116       -0.0000   203        1.0000        0.0000   299021  100.00%
    115   117        0.0000   149        1.0000        0.0000   304476  100.00%
    116   118        0.0000   173        1.0000        0.0000   311375  100.00%
    118   120        0.0002   598        1.0000        0.0000   325917  100.00%
    121   123        0.0000   365        1.0000        0.0000   327179  100.00%
    123   125        0.0002   568        1.0000        0.0000   329521  100.00%
    127   129       -0.0000   325        1.0000        0.0000   330964  100.00%
    130   132       -0.0000   287        1.0000        0.0000   332587  100.00%
    134   136       -0.0000   230        1.0000        0.0000   334212  100.00%
Elapsed time = 113.30 sec. (119872.49 ticks, tree = 1.16 MB, solutions = 3)
    138   140        0.0000   237        1.0000        0.0000   336345  100.00%
    141   143        0.0000   267        1.0000        0.0000   338132  100.00%
    144   146       -0.0000   238        1.0000        0.0000   340139  100.00%
    147   149        0.2500   384        1.0000        0.0000   342304  100.00%
    150   152        0.0000   225        1.0000        0.0000   344285  100.00%
    154   156        0.0000   220        1.0000        0.0000   346464  100.00%
    158   160        0.0030   454        1.0000        0.0000   348961  100.00%
    164   166        0.0109   454        1.0000        0.0000   350089  100.00%
    170   172        0.0109   463        1.0000        0.0000   351382  100.00%
    177   179        0.0014   471        1.0000        0.0000   351983  100.00%
Elapsed time = 123.32 sec. (130879.15 ticks, tree = 1.65 MB, solutions = 3)
    182   184        0.0014   477        1.0000        0.0000   353008  100.00%
    187   189        0.5000   214        1.0000        0.0000   355353  100.00%
    193   195        0.0015   486        1.0000        0.0000   355902  100.00%
    200   202        0.0015   488        1.0000        0.0000   356455  100.00%
    206   208        0.5000   212        1.0000        0.0000   358303  100.00%
    212   214        0.5000   228        1.0000        0.0000   359268  100.00%
    218   220        0.0015   470        1.0000        0.0000   360677  100.00%
    225   227        0.0015   469        1.0000        0.0000   361167  100.00%
    230   232        0.0045   449        1.0000        0.0000   363087  100.00%
    236   238        0.0015   466        1.0000        0.0000   364475  100.00%
Elapsed time = 133.51 sec. (141507.12 ticks, tree = 2.33 MB, solutions = 3)
    242   244        0.0015   455        1.0000        0.0000   365180  100.00%
    249   251        0.0041   447        1.0000        0.0000   366205  100.00%
    256   258        0.0417   464        1.0000        0.0000   366958  100.00%
    261   263        0.0185   455        1.0000        0.0000   368202  100.00%
    268   270        0.0033   483        1.0000        0.0000   369824  100.00%
    275   277        0.0035   440        1.0000        0.0000   371228  100.00%
    288   290        0.5000   223        1.0000        0.0000   372730  100.00%
    305   307        0.5000   207        1.0000        0.0000   373743  100.00%
    325   327        0.5000   172        1.0000        0.0000   375168  100.00%
    439   388        0.0000   396        1.0000        0.0000   379888  100.00%
Elapsed time = 146.03 sec. (154843.21 ticks, tree = 4.07 MB, solutions = 3)
    449   398       -0.0000   391        1.0000        0.0000   384409  100.00%
    460   409        0.0000   243        1.0000        0.0000   390054  100.00%
    472   421        0.0000   182        1.0000        0.0000   397981  100.00%
    483   432        0.0019   524        1.0000        0.0000   406777  100.00%
    495   444        0.0017   508        1.0000        0.0000   416817  100.00%
    512   461        0.0004   489        1.0000        0.0000   423818  100.00%
    515   464        0.0000   253        1.0000        0.0000   432454  100.00%

Performing restart 1

Repeating presolve.
Tried aggregator 1 time.
MIP Presolve modified 39350 coefficients.
Reduced MIP has 1212 rows, 5001 columns, and 52161 nonzeros.
Reduced MIP has 5000 binaries, 0 generals, 0 SOSs, and 0 indicators.
Presolve time = 0.05 sec. (63.97 ticks)
Tried aggregator 1 time.
Reduced MIP has 1212 rows, 5001 columns, and 52161 nonzeros.
Reduced MIP has 5000 binaries, 0 generals, 0 SOSs, and 0 indicators.
Presolve time = 0.03 sec. (26.37 ticks)
Represolve time = 0.18 sec. (197.16 ticks)
    517     0        0.0000   838        1.0000      Cuts: 14   438916  100.00%
    517     0        0.0000   398        1.0000      Cuts: 19   440359  100.00%
    517     0        0.0000   177        1.0000    Cliques: 4   441357  100.00%
    517     0        0.0000   102        1.0000       Cuts: 2   441662  100.00%
    517     0        0.0000   121        1.0000      Cuts: 32   442707  100.00%
    517     0        0.0000   112        1.0000      Cuts: 10   443395  100.00%
    517     0        0.0000   142        1.0000      Cuts: 13   444346  100.00%
    517     0        0.0000    30        1.0000      Fract: 1   444977  100.00%
    517     0        0.0000   356        1.0000       Cuts: 4   446509  100.00%
*   517+    0                            0.5000        0.0000           100.00%
    517     2        0.0000    63        0.5000        0.0000   446509  100.00%
    520     5        0.0000   615        0.5000        0.0000   465799  100.00%
    528    13        0.0000   214        0.5000        0.0000   477016  100.00%
Elapsed time = 233.21 sec. (251202.37 ticks, tree = 0.08 MB, solutions = 4)
    535    20        0.0000   119        0.5000        0.0000   488115  100.00%
    539    24       -0.0000   616        0.5000        0.0000   502137  100.00%
    543    28        0.0000   291        0.5000        0.0000   519680  100.00%
    548    33        0.0000   166        0.5000        0.0000   535692  100.00%
    553    38        0.0000   141        0.5000        0.0000   553907  100.00%
    557    41       -0.0000    88        0.5000        0.0000   572421  100.00%
    562    44        0.0000   186        0.5000        0.0000   588612  100.00%
    573    55        0.0000    86        0.5000        0.0000   604066  100.00%
    587    65        0.0000    82        0.5000        0.0000   621143  100.00%
    603    69    infeasible              0.5000        0.0000   645735  100.00%
Elapsed time = 274.13 sec. (293790.38 ticks, tree = 0.69 MB, solutions = 4)
    616    76    infeasible              0.5000        0.0000   664304  100.00%
    617    77        0.0000   105        0.5000        0.0000   666013  100.00%
    638    86        0.0000    84        0.5000        0.0000   685507  100.00%
    658    91        0.0000    90        0.5000        0.0000   707313  100.00%
    673    98        0.0000    80        0.5000        0.0000   729933  100.00%
    686    99    infeasible              0.5000        0.0000   752870  100.00%
    701    98        cutoff              0.5000        0.0000   775412  100.00%
    718   103       -0.0000   170        0.5000        0.0000   795020  100.00%
    740   113        0.0000    92        0.5000        0.0000   810948  100.00%
    758   117        0.0000   125        0.5000        0.0000   831684  100.00%
Elapsed time = 319.24 sec. (338112.07 ticks, tree = 1.23 MB, solutions = 4)
    769   120        0.0000   170        0.5000        0.0000   852081  100.00%
    787   130        0.0000   112        0.5000        0.0000   868460  100.00%
    802   139        0.0000   120        0.5000        0.0000   886746  100.00%
    816   141    infeasible              0.5000        0.0000   911284  100.00%
    835   144        0.0000    92        0.5000        0.0000   932721  100.00%
    850   151    infeasible              0.5000        0.0000   952713  100.00%
    868   155        0.0000   140        0.5000        0.0000   975942  100.00%
    884   166        0.0000    76        0.5000        0.0000   992017  100.00%
    894   168    infeasible              0.5000        0.0000  1015455  100.00%
    910   180        0.0000   113        0.5000        0.0000  1031090  100.00%
Elapsed time = 358.06 sec. (377287.85 ticks, tree = 1.94 MB, solutions = 4)
    925   181    infeasible              0.5000        0.0000  1055602  100.00%
    941   188        0.0000   266        0.5000        0.0000  1078045  100.00%
    952   189    infeasible              0.5000        0.0000  1102093  100.00%
    971   200        0.0000    92        0.5000        0.0000  1118871  100.00%
    989   206        0.0000   161        0.5000        0.0000  1139124  100.00%
   1014   231        0.0000   189        0.5000        0.0000  1145158  100.00%
   1017   234        0.0000   182        0.5000        0.0000  1145556  100.00%
   1040   247        0.0000   129        0.5000        0.0000  1166248  100.00%
   1057   252        0.0000    78        0.5000        0.0000  1188411  100.00%
   1071   256    infeasible              0.5000        0.0000  1210858  100.00%
Elapsed time = 413.58 sec. (430760.64 ticks, tree = 2.84 MB, solutions = 4)
   1081   262        0.0000    94        0.5000        0.0000  1228536  100.00%
   1100   273        0.0000   131        0.5000        0.0000  1248979  100.00%
   1124   287        0.0000   214        0.5000        0.0000  1268136  100.00%
   1144   297        0.0000    74        0.5000        0.0000  1286837  100.00%
   1160   299        0.0000   204        0.5000        0.0000  1308204  100.00%
   1182   310        0.0000   169        0.5000        0.0000  1325901  100.00%
   1201   321        0.0000   164        0.5000        0.0000  1345473  100.00%
   1227   325    infeasible              0.5000        0.0000  1369085  100.00%
   1240   330    infeasible              0.5000        0.0000  1390809  100.00%
   1256   336       -0.0000   141        0.5000        0.0000  1412623  100.00%
Elapsed time = 454.01 sec. (470656.13 ticks, tree = 3.77 MB, solutions = 4)
   1272   340        0.0000   101        0.5000        0.0000  1435690  100.00%
   1278   342        0.0000   167        0.5000        0.0000  1449389  100.00%
   1292   344        0.0000   165        0.5000        0.0000  1471679  100.00%
   1312   350        0.0000    82        0.5000        0.0000  1492558  100.00%
   1330   350    infeasible              0.5000        0.0000  1520740  100.00%
   1349   349    infeasible              0.5000        0.0000  1548552  100.00%
   1363   355    infeasible              0.5000        0.0000  1565525  100.00%
   1378   357        0.0000   160        0.5000        0.0000  1591241  100.00%
   1400   364    infeasible              0.5000        0.0000  1612238  100.00%
   1419   367       -0.0000    88        0.5000        0.0000  1636223  100.00%
Elapsed time = 493.52 sec. (510284.07 ticks, tree = 4.12 MB, solutions = 4)
   1440   381        0.0000   142        0.5000        0.0000  1651158  100.00%
   1471   384        0.0000    84        0.5000        0.0000  1673584  100.00%
   1490   389        0.0000   100        0.5000        0.0000  1698427  100.00%
   1510   395        0.0000   119        0.5000        0.0000  1721731  100.00%
   1528   397        0.0000    85        0.5000        0.0000  1746907  100.00%
   1542   401    infeasible              0.5000        0.0000  1767788  100.00%
   1562   409        0.0000   101        0.5000        0.0000  1786526  100.00%
   1581   414    infeasible              0.5000        0.0000  1808035  100.00%
   1599   426        0.0000   115        0.5000        0.0000  1825415  100.00%
   1617   434        0.0000   128        0.5000        0.0000  1845982  100.00%
Elapsed time = 533.44 sec. (549609.05 ticks, tree = 4.89 MB, solutions = 4)
   1633   438        0.0000   167        0.5000        0.0000  1868033  100.00%
   1652   439    infeasible              0.5000        0.0000  1892847  100.00%
   1670   451        0.0000   125        0.5000        0.0000  1910308  100.00%
   1697   462        0.0000    80        0.5000        0.0000  1927834  100.00%
   1713   466        0.0000   152        0.5000        0.0000  1951058  100.00%
Starting limited solution polishing.
   1733   472        0.0000   158        0.5000        0.0000  1974250  100.00%
   1754   481        0.0000    82        0.5000        0.0000  1994615  100.00%
   1770   481        0.0000   104        0.5000        0.0000  2020941  100.00%
   1787   482    infeasible              0.5000        0.0000  2047691  100.00%
   1803   490        0.0000   192        0.5000        0.0000  2063436  100.00%
Elapsed time = 572.80 sec. (588576.87 ticks, tree = 5.53 MB, solutions = 4)
   1825   502        0.0000   213        0.5000        0.0000  2078317  100.00%
   1851   512    infeasible              0.5000        0.0000  2095519  100.00%
   1862   513    infeasible              0.5000        0.0000  2122782  100.00%
   1877   518    infeasible              0.5000        0.0000  2143330  100.00%
   1901   530        0.0000    88        0.5000        0.0000  2160823  100.00%
   1923   544        0.0000   110        0.5000        0.0000  2176093  100.00%

Clique cuts applied:  6
Gomory fractional cuts applied:  2

Root node processing (before b&c):
  Real time             =    6.56 sec. (6775.57 ticks)
Sequential b&c:
  Real time             =  593.44 sec. (608446.76 ticks)
                          ------------
Total (root+branch&cut) =  600.00 sec. (615222.34 ticks)
Primal:	0.5
Dual:	0
Status:	Feasible
Time:	600.02
Sequence:
	24
	7
	14
	10
	16
	7
	19
	5
	7
	18
	5
	8
	18
	3
	18
	7
	6
	18
	7
	3
	18
	9
	3
	7
	18
	3
	20
	7
	5
	18
	7
	15
	12
	18
	1
	21
	7
	14
	10
	20
	1
	21
	7
	14
	13
	7
	14
	12
	18
	2
	21
	7
	14
	10
	18
	2
	21
	7
	14
	12
	8
	14
	12
	7
	14
	11
	7
	16
	10
	18
	0
	23
	7
	14
	10
	19
	1
	21
	7
	16
	10
	7
	15
	10
	18
	1
	21
	9
	14
	10
	18
	1
	23
	8
	14
	10
	18
	1
	22
	7
	16
	10
	18
	2
	21
	7
	14
	12
	18
	0
	23
	7
	14
	12
	18
	2
	21
	7
	14
	12
	19
	1
	21
	7
	14
	10
	20
	1
	21
	7
	14
	12
	16
	9
	21
	7
	14
	12
	15
	7
	10
	14
	7
	23
	8
	16
	10
	16
	7
	10
	14
	8
	21
	1
	18
	12
	15
	7
	18
	3
	7
	20
	5
	7
	18
	3
	19
	7
	16
	7
	18
	4
	18
	7
	3
	7
	18
	3
	19
	7
	5
	18
	7
	17
	7
	18
	5
	18
	9
	14
	10
	7
	14
	13
	16
	7
	10
	14
	9
	21
